10	5 
335	4	1	21	0	53	4	95	3	55	2	34
241	4	0	21	3	52	4	16	2	26	1	71
288	2	3	39	4	98	1	42	2	31	0	12
460	2	1	77	0	55	4	79	2	66	3	77
308	2	0	83	3	34	2	64	1	19	4	37
429	2	1	54	2	43	4	79	0	92	3	62
536	2	3	69	4	77	1	87	2	87	0	93
319	2	2	38	0	60	1	41	3	24	4	83
302	1	3	17	1	49	4	25	0	44	2	98
481	1	4	77	3	79	2	43	1	75	0	96
